NAME: line_80_5
TYPE: TSP
COMMENT: line_80_5
DIMENSION: 80
EDGE_WEIGHT_TYPE: EUC_2D
NODE_COORD_SECTION
1 0.0 179.0
2 0.0 5.0
3 0.0 331.0
4 0.0 224.0
5 0.0 657.0
6 0.0 141.0
7 0.0 668.0
8 0.0 254.0
9 0.0 40.0
10 0.0 21.0
11 0.0 627.0
12 0.0 336.0
13 0.0 697.0
14 0.0 714.0
15 0.0 357.0
16 0.0 390.0
17 0.0 663.0
18 0.0 86.0
19 0.0 620.0
20 0.0 228.0
21 0.0 487.0
22 0.0 147.0
23 0.0 722.0
24 0.0 126.0
25 0.0 102.0
26 0.0 64.0
27 0.0 6.0
28 0.0 410.0
29 0.0 591.0
30 0.0 790.0
31 0.0 457.0
32 0.0 344.0
33 0.0 266.0
34 0.0 495.0
35 0.0 194.0
36 0.0 82.0
37 0.0 323.0
38 0.0 665.0
39 0.0 124.0
40 0.0 69.0
41 0.0 209.0
42 0.0 685.0
43 0.0 244.0
44 0.0 107.0
45 0.0 274.0
46 0.0 689.0
47 0.0 73.0
48 0.0 432.0
49 0.0 322.0
50 0.0 226.0
51 0.0 462.0
52 0.0 81.0
53 0.0 100.0
54 0.0 388.0
55 0.0 477.0
56 0.0 347.0
57 0.0 635.0
58 0.0 732.0
59 0.0 372.0
60 0.0 281.0
61 0.0 247.0
62 0.0 540.0
63 0.0 435.0
64 0.0 383.0
65 0.0 218.0
66 0.0 665.0
67 0.0 315.0
68 0.0 435.0
69 0.0 504.0
70 0.0 7.0
71 0.0 222.0
72 0.0 182.0
73 0.0 373.0
74 0.0 377.0
75 0.0 251.0
76 0.0 355.0
77 0.0 11.0
78 0.0 32.0
79 0.0 218.0
80 0.0 643.0
